c Standarized MaxSat Instance
c{
c "sha1sum": "126fc5a5675a9f7102561b13539718a0adfb2dda",
c "nvars": 42,
c "ncls": 136,
c "nhards": 0,
c "nhard_len_stats":
c    { "min": 0, "max": 0, "ave": 0.00,
c      "stddev": 0.00 },
c "nsofts": 136,
c "nsoft_len_stats":
c    { "min": 2, "max": 2, "ave": 2.00,
c      "stddev": 0.00 },
c "nsoft_wts": 10,
c "soft_wt_stats":
c    { "min": 1, "max": 10, "ave": 5.68,
c      "stddev": 2.96 }
c}
c------------------------------------------------------------
c File:  c-fat500-2.clq
c
c Source: Panos Pardalos pardalos@math.ufl.edu
c
c Reference: P. Berman and A. Pelc, Distributed Fault Diagnosis for
c            Multiprocessor Systems, Proceedings of the 20th Annual
c            International Symposium on Fault-Tolerant Computing
c            Newcastle, UK, 340-346 (1990)
c
p wcnf 42 136 773
9 1 11 0
9 -1 -11 0
4 1 21 0
4 -1 -21 0
8 1 31 0
8 -1 -31 0
8 1 41 0
8 -1 -41 0
10 2 12 0
10 -2 -12 0
2 2 22 0
2 -2 -22 0
4 2 32 0
4 -2 -32 0
8 2 42 0
8 -2 -42 0
3 3 13 0
3 -3 -13 0
6 3 23 0
6 -3 -23 0
5 3 33 0
5 -3 -33 0
7 4 14 0
7 -4 -14 0
4 4 24 0
4 -4 -24 0
6 4 34 0
6 -4 -34 0
10 5 15 0
10 -5 -15 0
10 5 25 0
10 -5 -25 0
7 5 35 0
7 -5 -35 0
8 6 16 0
8 -6 -16 0
2 6 26 0
2 -6 -26 0
7 6 36 0
7 -6 -36 0
1 7 17 0
1 -7 -17 0
3 7 27 0
3 -7 -27 0
2 7 37 0
2 -7 -37 0
9 8 18 0
9 -8 -18 0
2 8 28 0
2 -8 -28 0
5 8 38 0
5 -8 -38 0
2 9 19 0
2 -9 -19 0
2 9 29 0
2 -9 -29 0
10 9 39 0
10 -9 -39 0
3 10 20 0
3 -10 -20 0
6 10 30 0
6 -10 -30 0
9 10 40 0
9 -10 -40 0
7 11 21 0
7 -11 -21 0
3 11 31 0
3 -11 -31 0
7 11 41 0
7 -11 -41 0
6 12 22 0
6 -12 -22 0
5 12 32 0
5 -12 -32 0
10 12 42 0
10 -12 -42 0
3 13 23 0
3 -13 -23 0
8 13 33 0
8 -13 -33 0
6 14 24 0
6 -14 -24 0
8 14 34 0
8 -14 -34 0
5 15 25 0
5 -15 -25 0
9 15 35 0
9 -15 -35 0
3 16 26 0
3 -16 -26 0
4 16 36 0
4 -16 -36 0
9 17 27 0
9 -17 -27 0
10 17 37 0
10 -17 -37 0
1 18 28 0
1 -18 -28 0
10 18 38 0
10 -18 -38 0
6 19 29 0
6 -19 -29 0
1 19 39 0
1 -19 -39 0
2 20 30 0
2 -20 -30 0
7 20 40 0
7 -20 -40 0
9 21 31 0
9 -21 -31 0
4 21 41 0
4 -21 -41 0
1 22 32 0
1 -22 -32 0
1 22 42 0
1 -22 -42 0
5 23 33 0
5 -23 -33 0
1 24 34 0
1 -24 -34 0
3 25 35 0
3 -25 -35 0
10 26 36 0
10 -26 -36 0
10 27 37 0
10 -27 -37 0
9 28 38 0
9 -28 -38 0
3 29 39 0
3 -29 -39 0
6 30 40 0
6 -30 -40 0
4 31 41 0
4 -31 -41 0
8 32 42 0
8 -32 -42 0
